# ----- Initialize simulation ------
clear
units real
dimension 3
boundary p p p
atom_style full

# ------ Create atoms -------------------
read_data data.tip4p_single
replicate 6 6 6

# -------- Define interatomic potential ----
# Original model from Horn et al, J Chem Phys 120: 9665 (2004)
# Charges and geometry are specified in the "data." file.

mass 1 1.00794 # H
mass 2 15.9994 # O

pair_style lj/cut/tip4p/long 2 1 1 1 0.125 10.0
kspace_style pppm/tip4p 1.0e-5 

pair_coeff 1 1 0.0 0.0
pair_coeff 1 2 0.0 0.0	
pair_coeff 2 2 0.16275 3.16435

bond_style harmonic
bond_coeff 1 0.0 0.9572

angle_style harmonic
angle_coeff 1 0.0 104.52 

# -------- Settings ----------------
fix mySHAKE all shake 1.0e-4 100 0 b 1 a 1
fix myTemp all npt temp 100.0 400.0 50.0 iso 1.0 1.0 100.0

dump myDump all custom 1 output.lammpstrj id element x y z vx vy vz
dump_modify myDump element H O  
run 2000

fix myTemp all npt temp 400.0 100.0 50.0 iso 1.0 1.0 100.0
run 3000

fix myTemp all npt temp 100.0 100.0 100.0 iso 1.0 1.0 100.0
run 3000